true true true
presolving:
presolving (0 rounds: 0 fast, 0 medium, 0 exhaustive):
 0 deleted vars, 0 deleted constraints, 0 added constraints, 0 tightened bounds, 0 added holes, 0 changed sides, 0 changed coefficients
 0 implications, 0 cliques
presolved problem has 58 variables (58 bin, 0 int, 0 impl, 0 cont) and 51 constraints
     51 constraints of type <linear>
transformed objective value is always integral (scale: 1)
Presolving Time: 0.00

 time | node  | left  |LP iter|LP it/n|mem/heur|mdpt |vars |cons |rows |cuts |sepa|confs|strbr|  dualbound   | primalbound  |  gap   | compl. 
p 0.0s|     1 |     0 |     0 |     - |shiftand|   0 |  58 |  51 |  51 |   0 |  0 |   0 |   0 |      --      | 7.000000e+00 |    Inf | unknown
 time | node  | left  |LP iter|LP it/n|mem/heur|mdpt |vars |cons |rows |cuts |sepa|confs|strbr|  dualbound   | primalbound  |  gap   | compl. 
  0.1s|     1 |     0 |    36 |     - |  3953k |   0 |1047 |  51 |  51 |   0 |  0 |   0 |   0 | 1.000000e+00 | 7.000000e+00 | 600.00%| unknown
 time | node  | left  |LP iter|LP it/n|mem/heur|mdpt |vars |cons |rows |cuts |sepa|confs|strbr|  dualbound   | primalbound  |  gap   | compl. 
  682s|     1 |     0 |  1064 |     - |    17M |   0 |5092 |  51 |  51 |   0 |  0 |   0 |   0 | 6.000000e+00 | 7.000000e+00 |  16.67%| unknown
 time | node  | left  |LP iter|LP it/n|mem/heur|mdpt |vars |cons |rows |cuts |sepa|confs|strbr|  dualbound   | primalbound  |  gap   | compl. 
  683s|     1 |     2 |  4798 |     - |    18M |   0 |5092 |  51 |  51 |   0 |  1 |   0 |   0 | 6.000000e+00 | 7.000000e+00 |  16.67%| unknown
 time | node  | left  |LP iter|LP it/n|mem/heur|mdpt |vars |cons |rows |cuts |sepa|confs|strbr|  dualbound   | primalbound  |  gap   | compl. 
  683s|     2 |     3 |  4807 |   9.0 |    18M |   1 |5092 |  51 |  51 |   0 |  1 |   0 |   0 | 6.000000e+00 | 7.000000e+00 |  16.67%| unknown
 time | node  | left  |LP iter|LP it/n|mem/heur|mdpt |vars |cons |rows |cuts |sepa|confs|strbr|  dualbound   | primalbound  |  gap   | compl. 
  683s|     3 |     4 |  4820 |  11.0 |    18M |   2 |5092 |  51 |  51 |   0 |  1 |   0 |   0 | 6.000000e+00 | 7.000000e+00 |  16.67%| unknown
 time | node  | left  |LP iter|LP it/n|mem/heur|mdpt |vars |cons |rows |cuts |sepa|confs|strbr|  dualbound   | primalbound  |  gap   | compl. 
  684s|     4 |     5 |  4883 |  28.3 |    19M |   3 |5092 |  51 |  51 |   0 |  1 |   0 |   0 | 6.000000e+00 | 7.000000e+00 |  16.67%| unknown
 time | node  | left  |LP iter|LP it/n|mem/heur|mdpt |vars |cons |rows |cuts |sepa|confs|strbr|  dualbound   | primalbound  |  gap   | compl. 
  684s|     5 |     6 |  4920 |  30.5 |    19M |   4 |5092 |  51 |  51 |   0 |  1 |   0 |   0 | 6.000000e+00 | 7.000000e+00 |  16.67%| unknown
 time | node  | left  |LP iter|LP it/n|mem/heur|mdpt |vars |cons |rows |cuts |sepa|confs|strbr|  dualbound   | primalbound  |  gap   | compl. 
  684s|     6 |     7 |  4929 |  26.2 |    19M |   5 |5092 |  51 |  51 |   0 |  1 |   0 |   0 | 6.000000e+00 | 7.000000e+00 |  16.67%| unknown
 time | node  | left  |LP iter|LP it/n|mem/heur|mdpt |vars |cons |rows |cuts |sepa|confs|strbr|  dualbound   | primalbound  |  gap   | compl. 
  684s|     7 |     8 |  5006 |  34.7 |    19M |   6 |5092 |  51 |  51 |   0 |  1 |   0 |   0 | 6.000000e+00 | 7.000000e+00 |  16.67%| unknown
 time | node  | left  |LP iter|LP it/n|mem/heur|mdpt |vars |cons |rows |cuts |sepa|confs|strbr|  dualbound   | primalbound  |  gap   | compl. 
  684s|     8 |     9 |  6000 | 171.7 |    20M |   6 |5092 |  51 |  51 |   0 |  1 |   0 |   0 | 6.000000e+00 | 7.000000e+00 |  16.67%| unknown
 time | node  | left  |LP iter|LP it/n|mem/heur|mdpt |vars |cons |rows |cuts |sepa|confs|strbr|  dualbound   | primalbound  |  gap   | compl. 
  684s|     9 |    10 |  6154 | 169.5 |    21M |   6 |5092 |  51 |  51 |   0 |  1 |   0 |   0 | 6.000000e+00 | 7.000000e+00 |  16.67%| unknown
 time | node  | left  |LP iter|LP it/n|mem/heur|mdpt |vars |cons |rows |cuts |sepa|confs|strbr|  dualbound   | primalbound  |  gap   | compl. 
  685s|    10 |    11 |  6170 | 152.4 |    21M |   6 |5092 |  51 |  51 |   0 |  1 |   0 |   0 | 6.000000e+00 | 7.000000e+00 |  16.67%| unknown
 time | node  | left  |LP iter|LP it/n|mem/heur|mdpt |vars |cons |rows |cuts |sepa|confs|strbr|  dualbound   | primalbound  |  gap   | compl. 
  685s|    11 |    12 |  6178 | 138.0 |    21M |   7 |5092 |  51 |  51 |   0 |  1 |   0 |   0 | 6.000000e+00 | 7.000000e+00 |  16.67%| unknown
 time | node  | left  |LP iter|LP it/n|mem/heur|mdpt |vars |cons |rows |cuts |sepa|confs|strbr|  dualbound   | primalbound  |  gap   | compl. 
  685s|    12 |    13 |  6189 | 126.5 |    21M |   8 |5092 |  51 |  51 |   0 |  1 |   0 |   0 | 6.000000e+00 | 7.000000e+00 |  16.67%| unknown
 time | node  | left  |LP iter|LP it/n|mem/heur|mdpt |vars |cons |rows |cuts |sepa|confs|strbr|  dualbound   | primalbound  |  gap   | compl. 
  685s|    13 |    14 |  6306 | 125.7 |    21M |   8 |5092 |  51 |  51 |   0 |  1 |   0 |   0 | 6.000000e+00 | 7.000000e+00 |  16.67%| unknown
 time | node  | left  |LP iter|LP it/n|mem/heur|mdpt |vars |cons |rows |cuts |sepa|confs|strbr|  dualbound   | primalbound  |  gap   | compl. 
  686s|    14 |    15 |  6801 | 154.1 |    21M |   9 |5092 |  51 |  51 |   0 |  1 |   0 |   0 | 6.000000e+00 | 7.000000e+00 |  16.67%| unknown
 time | node  | left  |LP iter|LP it/n|mem/heur|mdpt |vars |cons |rows |cuts |sepa|confs|strbr|  dualbound   | primalbound  |  gap   | compl. 
  686s|    15 |    16 |  8154 | 239.7 |    21M |   9 |5092 |  51 |  51 |   0 |  1 |   0 |   0 | 6.000000e+00 | 7.000000e+00 |  16.67%| unknown
 time | node  | left  |LP iter|LP it/n|mem/heur|mdpt |vars |cons |rows |cuts |sepa|confs|strbr|  dualbound   | primalbound  |  gap   | compl. 
  687s|    16 |    17 |  8251 | 230.2 |    21M |   9 |5092 |  51 |  51 |   0 |  1 |   0 |   0 | 6.000000e+00 | 7.000000e+00 |  16.67%| unknown
 time | node  | left  |LP iter|LP it/n|mem/heur|mdpt |vars |cons |rows |cuts |sepa|confs|strbr|  dualbound   | primalbound  |  gap   | compl. 
  687s|    17 |    18 |  8516 | 232.4 |    21M |   9 |5092 |  51 |  51 |   0 |  1 |   0 |   0 | 6.000000e+00 | 7.000000e+00 |  16.67%| unknown
 time | node  | left  |LP iter|LP it/n|mem/heur|mdpt |vars |cons |rows |cuts |sepa|confs|strbr|  dualbound   | primalbound  |  gap   | compl. 
  688s|    18 |    19 |  9016 | 248.1 |    21M |   9 |5092 |  51 |  51 |   0 |  1 |   0 |   0 | 6.000000e+00 | 7.000000e+00 |  16.67%| unknown
 time | node  | left  |LP iter|LP it/n|mem/heur|mdpt |vars |cons |rows |cuts |sepa|confs|strbr|  dualbound   | primalbound  |  gap   | compl. 
  688s|    19 |    20 |  9089 | 238.4 |    23M |   9 |5092 |  51 |  51 |   0 |  1 |   0 |   0 | 6.000000e+00 | 7.000000e+00 |  16.67%| unknown
 time | node  | left  |LP iter|LP it/n|mem/heur|mdpt |vars |cons |rows |cuts |sepa|confs|strbr|  dualbound   | primalbound  |  gap   | compl. 
  688s|    20 |    21 |  9109 | 226.9 |    23M |  10 |5092 |  51 |  51 |   0 |  1 |   0 |   0 | 6.000000e+00 | 7.000000e+00 |  16.67%| unknown
 time | node  | left  |LP iter|LP it/n|mem/heur|mdpt |vars |cons |rows |cuts |sepa|confs|strbr|  dualbound   | primalbound  |  gap   | compl. 
  689s|    21 |    22 |  9613 | 240.8 |    23M |  11 |5092 |  51 |  51 |   0 |  1 |   0 |   0 | 6.000000e+00 | 7.000000e+00 |  16.67%| unknown
 time | node  | left  |LP iter|LP it/n|mem/heur|mdpt |vars |cons |rows |cuts |sepa|confs|strbr|  dualbound   | primalbound  |  gap   | compl. 
  689s|    22 |    23 |  9698 | 233.3 |    23M |  11 |5092 |  51 |  51 |   0 |  1 |   0 |   0 | 6.000000e+00 | 7.000000e+00 |  16.67%| unknown
 time | node  | left  |LP iter|LP it/n|mem/heur|mdpt |vars |cons |rows |cuts |sepa|confs|strbr|  dualbound   | primalbound  |  gap   | compl. 
  689s|    23 |    24 |  9781 | 226.5 |    23M |  11 |5092 |  51 |  51 |   0 |  1 |   0 |   0 | 6.000000e+00 | 7.000000e+00 |  16.67%| unknown
 time | node  | left  |LP iter|LP it/n|mem/heur|mdpt |vars |cons |rows |cuts |sepa|confs|strbr|  dualbound   | primalbound  |  gap   | compl. 
  690s|    24 |    25 |  9805 | 217.7 |    23M |  11 |5092 |  51 |  51 |   0 |  1 |   0 |   0 | 6.000000e+00 | 7.000000e+00 |  16.67%| unknown
 time | node  | left  |LP iter|LP it/n|mem/heur|mdpt |vars |cons |rows |cuts |sepa|confs|strbr|  dualbound   | primalbound  |  gap   | compl. 
  690s|    25 |    26 | 10080 | 220.1 |    23M |  11 |5092 |  51 |  51 |   0 |  1 |   0 |   0 | 6.000000e+00 | 7.000000e+00 |  16.67%| unknown
 time | node  | left  |LP iter|LP it/n|mem/heur|mdpt |vars |cons |rows |cuts |sepa|confs|strbr|  dualbound   | primalbound  |  gap   | compl. 
  691s|    26 |    27 | 10225 | 217.1 |    23M |  11 |5092 |  51 |  51 |   0 |  1 |   0 |   0 | 6.000000e+00 | 7.000000e+00 |  16.67%| unknown
 time | node  | left  |LP iter|LP it/n|mem/heur|mdpt |vars |cons |rows |cuts |sepa|confs|strbr|  dualbound   | primalbound  |  gap   | compl. 
  691s|    27 |    28 | 10581 | 222.4 |    23M |  11 |5092 |  51 |  51 |   0 |  1 |   0 |   0 | 6.000000e+00 | 7.000000e+00 |  16.67%| unknown
 time | node  | left  |LP iter|LP it/n|mem/heur|mdpt |vars |cons |rows |cuts |sepa|confs|strbr|  dualbound   | primalbound  |  gap   | compl. 
  691s|    28 |    29 | 10722 | 219.4 |    23M |  11 |5092 |  51 |  51 |   0 |  1 |   0 |   0 | 6.000000e+00 | 7.000000e+00 |  16.67%| unknown
 time | node  | left  |LP iter|LP it/n|mem/heur|mdpt |vars |cons |rows |cuts |sepa|confs|strbr|  dualbound   | primalbound  |  gap   | compl. 
  692s|    29 |    30 | 10817 | 215.0 |    23M |  11 |5092 |  51 |  51 |   0 |  1 |   0 |   0 | 6.000000e+00 | 7.000000e+00 |  16.67%| unknown
 time | node  | left  |LP iter|LP it/n|mem/heur|mdpt |vars |cons |rows |cuts |sepa|confs|strbr|  dualbound   | primalbound  |  gap   | compl. 
  692s|    30 |    31 | 10862 | 209.1 |    23M |  11 |5092 |  51 |  51 |   0 |  1 |   0 |   0 | 6.000000e+00 | 7.000000e+00 |  16.67%| unknown
 time | node  | left  |LP iter|LP it/n|mem/heur|mdpt |vars |cons |rows |cuts |sepa|confs|strbr|  dualbound   | primalbound  |  gap   | compl. 
  692s|    31 |    32 | 10913 | 203.8 |    23M |  11 |5092 |  51 |  51 |   0 |  1 |   0 |   0 | 6.000000e+00 | 7.000000e+00 |  16.67%| unknown
 time | node  | left  |LP iter|LP it/n|mem/heur|mdpt |vars |cons |rows |cuts |sepa|confs|strbr|  dualbound   | primalbound  |  gap   | compl. 
  693s|    32 |    33 | 10923 | 197.6 |    23M |  11 |5092 |  51 |  51 |   0 |  1 |   0 |   0 | 6.000000e+00 | 7.000000e+00 |  16.67%| unknown
 time | node  | left  |LP iter|LP it/n|mem/heur|mdpt |vars |cons |rows |cuts |sepa|confs|strbr|  dualbound   | primalbound  |  gap   | compl. 
  693s|    33 |    34 | 11129 | 197.8 |    23M |  11 |5092 |  51 |  51 |   0 |  1 |   0 |   0 | 6.000000e+00 | 7.000000e+00 |  16.67%| unknown
 time | node  | left  |LP iter|LP it/n|mem/heur|mdpt |vars |cons |rows |cuts |sepa|confs|strbr|  dualbound   | primalbound  |  gap   | compl. 
  694s|    34 |    35 | 11153 | 192.6 |    23M |  11 |5092 |  51 |  51 |   0 |  1 |   0 |   0 | 6.000000e+00 | 7.000000e+00 |  16.67%| unknown
 time | node  | left  |LP iter|LP it/n|mem/heur|mdpt |vars |cons |rows |cuts |sepa|confs|strbr|  dualbound   | primalbound  |  gap   | compl. 
  694s|    35 |    36 | 11165 | 187.3 |    23M |  11 |5092 |  51 |  51 |   0 |  1 |   0 |   0 | 6.000000e+00 | 7.000000e+00 |  16.67%| unknown
 time | node  | left  |LP iter|LP it/n|mem/heur|mdpt |vars |cons |rows |cuts |sepa|confs|strbr|  dualbound   | primalbound  |  gap   | compl. 
  695s|    36 |    37 | 11211 | 183.2 |    23M |  11 |5092 |  51 |  51 |   0 |  1 |   0 |   0 | 6.000000e+00 | 7.000000e+00 |  16.67%| unknown
 time | node  | left  |LP iter|LP it/n|mem/heur|mdpt |vars |cons |rows |cuts |sepa|confs|strbr|  dualbound   | primalbound  |  gap   | compl. 
  695s|    37 |    38 | 11848 | 195.8 |    23M |  12 |5092 |  51 |  51 |   0 |  1 |   0 |   0 | 6.000000e+00 | 7.000000e+00 |  16.67%| unknown
 time | node  | left  |LP iter|LP it/n|mem/heur|mdpt |vars |cons |rows |cuts |sepa|confs|strbr|  dualbound   | primalbound  |  gap   | compl. 
  696s|    38 |    39 | 11880 | 191.4 |    23M |  12 |5092 |  51 |  51 |   0 |  1 |   0 |   0 | 6.000000e+00 | 7.000000e+00 |  16.67%| unknown
 time | node  | left  |LP iter|LP it/n|mem/heur|mdpt |vars |cons |rows |cuts |sepa|confs|strbr|  dualbound   | primalbound  |  gap   | compl. 
  697s|    39 |    40 | 12257 | 196.3 |    24M |  12 |5885 |  51 |  51 |   0 |  1 |   0 |   0 | 6.000000e+00 | 7.000000e+00 |  16.67%| unknown
 time | node  | left  |LP iter|LP it/n|mem/heur|mdpt |vars |cons |rows |cuts |sepa|confs|strbr|  dualbound   | primalbound  |  gap   | compl. 
  698s|    40 |    41 | 12310 | 192.6 |    24M |  13 |5885 |  51 |  51 |   0 |  1 |   0 |   0 | 6.000000e+00 | 7.000000e+00 |  16.67%| unknown
 time | node  | left  |LP iter|LP it/n|mem/heur|mdpt |vars |cons |rows |cuts |sepa|confs|strbr|  dualbound   | primalbound  |  gap   | compl. 
  698s|    41 |    42 | 12320 | 188.1 |    24M |  14 |5885 |  51 |  51 |   0 |  1 |   0 |   0 | 6.000000e+00 | 7.000000e+00 |  16.67%| unknown
 time | node  | left  |LP iter|LP it/n|mem/heur|mdpt |vars |cons |rows |cuts |sepa|confs|strbr|  dualbound   | primalbound  |  gap   | compl. 
  699s|    42 |    43 | 12420 | 185.9 |    24M |  15 |5885 |  51 |  51 |   0 |  1 |   0 |   0 | 6.000000e+00 | 7.000000e+00 |  16.67%| unknown
 time | node  | left  |LP iter|LP it/n|mem/heur|mdpt |vars |cons |rows |cuts |sepa|confs|strbr|  dualbound   | primalbound  |  gap   | compl. 
  700s|    43 |    44 | 12745 | 189.2 |    25M |  16 |5885 |  51 |  51 |   0 |  1 |   0 |   0 | 6.000000e+00 | 7.000000e+00 |  16.67%| unknown
 time | node  | left  |LP iter|LP it/n|mem/heur|mdpt |vars |cons |rows |cuts |sepa|confs|strbr|  dualbound   | primalbound  |  gap   | compl. 
  701s|    44 |    45 | 12750 | 184.9 |    25M |  16 |5885 |  51 |  51 |   0 |  1 |   0 |   0 | 6.000000e+00 | 7.000000e+00 |  16.67%| unknown
 time | node  | left  |LP iter|LP it/n|mem/heur|mdpt |vars |cons |rows |cuts |sepa|confs|strbr|  dualbound   | primalbound  |  gap   | compl. 
  701s|    45 |    46 | 12781 | 181.4 |    25M |  16 |5885 |  51 |  51 |   0 |  1 |   0 |   0 | 6.000000e+00 | 7.000000e+00 |  16.67%| unknown
 time | node  | left  |LP iter|LP it/n|mem/heur|mdpt |vars |cons |rows |cuts |sepa|confs|strbr|  dualbound   | primalbound  |  gap   | compl. 
  702s|    46 |    47 | 13354 | 190.1 |    25M |  17 |5885 |  51 |  51 |   0 |  1 |   0 |   0 | 6.000000e+00 | 7.000000e+00 |  16.67%| unknown
 time | node  | left  |LP iter|LP it/n|mem/heur|mdpt |vars |cons |rows |cuts |sepa|confs|strbr|  dualbound   | primalbound  |  gap   | compl. 
  703s|    47 |    48 | 13427 | 187.6 |    25M |  17 |5885 |  51 |  51 |   0 |  1 |   0 |   0 | 6.000000e+00 | 7.000000e+00 |  16.67%| unknown
 time | node  | left  |LP iter|LP it/n|mem/heur|mdpt |vars |cons |rows |cuts |sepa|confs|strbr|  dualbound   | primalbound  |  gap   | compl. 
  704s|    48 |    49 | 13440 | 183.9 |    25M |  17 |5885 |  51 |  51 |   0 |  1 |   0 |   0 | 6.000000e+00 | 7.000000e+00 |  16.67%| unknown
 time | node  | left  |LP iter|LP it/n|mem/heur|mdpt |vars |cons |rows |cuts |sepa|confs|strbr|  dualbound   | primalbound  |  gap   | compl. 
  705s|    49 |    50 | 13443 | 180.1 |    25M |  18 |5885 |  51 |  51 |   0 |  1 |   0 |   0 | 6.000000e+00 | 7.000000e+00 |  16.67%| unknown
 time | node  | left  |LP iter|LP it/n|mem/heur|mdpt |vars |cons |rows |cuts |sepa|confs|strbr|  dualbound   | primalbound  |  gap   | compl. 
  706s|    50 |    51 | 13810 | 183.9 |    28M |  19 |6563 |  51 |  51 |   0 |  1 |   0 |   0 | 6.000000e+00 | 7.000000e+00 |  16.67%| unknown
 time | node  | left  |LP iter|LP it/n|mem/heur|mdpt |vars |cons |rows |cuts |sepa|confs|strbr|  dualbound   | primalbound  |  gap   | compl. 
  707s|    51 |    52 | 13889 | 181.8 |    29M |  20 |6563 |  51 |  51 |   0 |  1 |   0 |   0 | 6.000000e+00 | 7.000000e+00 |  16.67%| unknown
 time | node  | left  |LP iter|LP it/n|mem/heur|mdpt |vars |cons |rows |cuts |sepa|confs|strbr|  dualbound   | primalbound  |  gap   | compl. 
  708s|    52 |    53 | 13909 | 178.6 |    29M |  21 |6563 |  51 |  51 |   0 |  1 |   0 |   0 | 6.000000e+00 | 7.000000e+00 |  16.67%| unknown
 time | node  | left  |LP iter|LP it/n|mem/heur|mdpt |vars |cons |rows |cuts |sepa|confs|strbr|  dualbound   | primalbound  |  gap   | compl. 
  709s|    53 |    54 | 14168 | 180.2 |    29M |  22 |7141 |  51 |  51 |   0 |  1 |   0 |   0 | 6.000000e+00 | 7.000000e+00 |  16.67%| unknown
 time | node  | left  |LP iter|LP it/n|mem/heur|mdpt |vars |cons |rows |cuts |sepa|confs|strbr|  dualbound   | primalbound  |  gap   | compl. 
  710s|    54 |    55 | 14221 | 177.8 |    29M |  23 |7141 |  51 |  51 |   0 |  1 |   0 |   0 | 6.000000e+00 | 7.000000e+00 |  16.67%| unknown
 time | node  | left  |LP iter|LP it/n|mem/heur|mdpt |vars |cons |rows |cuts |sepa|confs|strbr|  dualbound   | primalbound  |  gap   | compl. 
  711s|    55 |    54 | 14397 | 177.8 |    30M |  23 |7386 |  51 |  51 |   0 |  0 |   0 |   0 | 6.000000e+00 | 7.000000e+00 |  16.67%| unknown
 time | node  | left  |LP iter|LP it/n|mem/heur|mdpt |vars |cons |rows |cuts |sepa|confs|strbr|  dualbound   | primalbound  |  gap   | compl. 
  712s|    56 |    55 | 14461 | 175.7 |    30M |  23 |7386 |  51 |  51 |   0 |  1 |   0 |   0 | 6.000000e+00 | 7.000000e+00 |  16.67%| unknown
 time | node  | left  |LP iter|LP it/n|mem/heur|mdpt |vars |cons |rows |cuts |sepa|confs|strbr|  dualbound   | primalbound  |  gap   | compl. 
  713s|    57 |    56 | 14711 | 177.0 |    32M |  23 |7957 |  51 |  51 |   0 |  1 |   0 |   0 | 6.000000e+00 | 7.000000e+00 |  16.67%| unknown
 time | node  | left  |LP iter|LP it/n|mem/heur|mdpt |vars |cons |rows |cuts |sepa|confs|strbr|  dualbound   | primalbound  |  gap   | compl. 
  714s|    58 |    57 | 14797 | 175.4 |    32M |  23 |7957 |  51 |  51 |   0 |  1 |   0 |   0 | 6.000000e+00 | 7.000000e+00 |  16.67%| unknown
 time | node  | left  |LP iter|LP it/n|mem/heur|mdpt |vars |cons |rows |cuts |sepa|confs|strbr|  dualbound   | primalbound  |  gap   | compl. 
  715s|    59 |    58 | 14934 | 174.8 |    33M |  24 |8618 |  51 |  51 |   0 |  1 |   0 |   0 | 6.000000e+00 | 7.000000e+00 |  16.67%| unknown
 time | node  | left  |LP iter|LP it/n|mem/heur|mdpt |vars |cons |rows |cuts |sepa|confs|strbr|  dualbound   | primalbound  |  gap   | compl. 
  717s|    60 |    59 | 14984 | 172.6 |    34M |  25 |8618 |  51 |  51 |   0 |  1 |   0 |   0 | 6.000000e+00 | 7.000000e+00 |  16.67%| unknown
 time | node  | left  |LP iter|LP it/n|mem/heur|mdpt |vars |cons |rows |cuts |sepa|confs|strbr|  dualbound   | primalbound  |  gap   | compl. 
  718s|    61 |    60 | 15286 | 174.8 |    36M |  26 |9158 |  51 |  51 |   0 |  1 |   0 |   0 | 6.000000e+00 | 7.000000e+00 |  16.67%| unknown
 time | node  | left  |LP iter|LP it/n|mem/heur|mdpt |vars |cons |rows |cuts |sepa|confs|strbr|  dualbound   | primalbound  |  gap   | compl. 
  719s|    62 |    61 | 15394 | 173.7 |    37M |  26 |9581 |  51 |  51 |   0 |  1 |   0 |   0 | 6.000000e+00 | 7.000000e+00 |  16.67%| unknown
 time | node  | left  |LP iter|LP it/n|mem/heur|mdpt |vars |cons |rows |cuts |sepa|confs|strbr|  dualbound   | primalbound  |  gap   | compl. 
  721s|    63 |    62 | 15447 | 171.8 |    38M |  26 |9581 |  51 |  51 |   0 |  1 |   0 |   0 | 6.000000e+00 | 7.000000e+00 |  16.67%| unknown
 time | node  | left  |LP iter|LP it/n|mem/heur|mdpt |vars |cons |rows |cuts |sepa|confs|strbr|  dualbound   | primalbound  |  gap   | compl. 
  722s|    64 |    63 | 15835 | 175.2 |    39M |  26 |  10k|  51 |  51 |   0 |  1 |   0 |   0 | 6.000000e+00 | 7.000000e+00 |  16.67%| unknown
 time | node  | left  |LP iter|LP it/n|mem/heur|mdpt |vars |cons |rows |cuts |sepa|confs|strbr|  dualbound   | primalbound  |  gap   | compl. 
  724s|    65 |    64 | 15905 | 173.5 |    39M |  26 |  10k|  51 |  51 |   0 |  1 |   0 |   0 | 6.000000e+00 | 7.000000e+00 |  16.67%| unknown
 time | node  | left  |LP iter|LP it/n|mem/heur|mdpt |vars |cons |rows |cuts |sepa|confs|strbr|  dualbound   | primalbound  |  gap   | compl. 
  725s|    66 |    65 | 15929 | 171.2 |    39M |  26 |  10k|  51 |  51 |   0 |  1 |   0 |   0 | 6.000000e+00 | 7.000000e+00 |  16.67%| unknown
 time | node  | left  |LP iter|LP it/n|mem/heur|mdpt |vars |cons |rows |cuts |sepa|confs|strbr|  dualbound   | primalbound  |  gap   | compl. 
  727s|    67 |    66 | 15944 | 168.9 |    39M |  26 |  10k|  51 |  51 |   0 |  1 |   0 |   0 | 6.000000e+00 | 7.000000e+00 |  16.67%| unknown
 time | node  | left  |LP iter|LP it/n|mem/heur|mdpt |vars |cons |rows |cuts |sepa|confs|strbr|  dualbound   | primalbound  |  gap   | compl. 
  728s|    68 |    67 | 15993 | 167.1 |    39M |  26 |  10k|  51 |  51 |   0 |  1 |   0 |   0 | 6.000000e+00 | 7.000000e+00 |  16.67%| unknown
 time | node  | left  |LP iter|LP it/n|mem/heur|mdpt |vars |cons |rows |cuts |sepa|confs|strbr|  dualbound   | primalbound  |  gap   | compl. 
  730s|    69 |    68 | 16235 | 168.2 |    41M |  26 |  10k|  51 |  51 |   0 |  1 |   0 |   0 | 6.000000e+00 | 7.000000e+00 |  16.67%| unknown
 time | node  | left  |LP iter|LP it/n|mem/heur|mdpt |vars |cons |rows |cuts |sepa|confs|strbr|  dualbound   | primalbound  |  gap   | compl. 
  732s|    70 |    69 | 16265 | 166.2 |    41M |  26 |  10k|  51 |  51 |   0 |  1 |   0 |   0 | 6.000000e+00 | 7.000000e+00 |  16.67%| unknown
 time | node  | left  |LP iter|LP it/n|mem/heur|mdpt |vars |cons |rows |cuts |sepa|confs|strbr|  dualbound   | primalbound  |  gap   | compl. 
  733s|    71 |    70 | 16282 | 164.1 |    41M |  26 |  10k|  51 |  51 |   0 |  1 |   0 |   0 | 6.000000e+00 | 7.000000e+00 |  16.67%| unknown
 time | node  | left  |LP iter|LP it/n|mem/heur|mdpt |vars |cons |rows |cuts |sepa|confs|strbr|  dualbound   | primalbound  |  gap   | compl. 
  735s|    72 |    71 | 16508 | 164.9 |    42M |  26 |  10k|  51 |  51 |   0 |  1 |   0 |   0 | 6.000000e+00 | 7.000000e+00 |  16.67%| unknown
 time | node  | left  |LP iter|LP it/n|mem/heur|mdpt |vars |cons |rows |cuts |sepa|confs|strbr|  dualbound   | primalbound  |  gap   | compl. 
  736s|    73 |    72 | 16558 | 163.3 |    42M |  26 |  10k|  51 |  51 |   0 |  1 |   0 |   0 | 6.000000e+00 | 7.000000e+00 |  16.67%| unknown
 time | node  | left  |LP iter|LP it/n|mem/heur|mdpt |vars |cons |rows |cuts |sepa|confs|strbr|  dualbound   | primalbound  |  gap   | compl. 
  738s|    74 |    73 | 16952 | 166.5 |    46M |  26 |  11k|  51 |  51 |   0 |  1 |   0 |   0 | 6.000000e+00 | 7.000000e+00 |  16.67%| unknown
 time | node  | left  |LP iter|LP it/n|mem/heur|mdpt |vars |cons |rows |cuts |sepa|confs|strbr|  dualbound   | primalbound  |  gap   | compl. 
  740s|    75 |    74 | 17085 | 166.0 |    46M |  27 |  12k|  51 |  51 |   0 |  1 |   0 |   0 | 6.000000e+00 | 7.000000e+00 |  16.67%| unknown
 time | node  | left  |LP iter|LP it/n|mem/heur|mdpt |vars |cons |rows |cuts |sepa|confs|strbr|  dualbound   | primalbound  |  gap   | compl. 
  743s|    76 |    75 | 17543 | 169.9 |    47M |  28 |  12k|  51 |  51 |   0 |  1 |   0 |   0 | 6.000000e+00 | 7.000000e+00 |  16.67%| unknown
 time | node  | left  |LP iter|LP it/n|mem/heur|mdpt |vars |cons |rows |cuts |sepa|confs|strbr|  dualbound   | primalbound  |  gap   | compl. 
  744s|    77 |    76 | 17626 | 168.8 |    47M |  28 |  12k|  51 |  51 |   0 |  1 |   0 |   0 | 6.000000e+00 | 7.000000e+00 |  16.67%| unknown
 time | node  | left  |LP iter|LP it/n|mem/heur|mdpt |vars |cons |rows |cuts |sepa|confs|strbr|  dualbound   | primalbound  |  gap   | compl. 
  746s|    78 |    77 | 17636 | 166.7 |    47M |  28 |  12k|  51 |  51 |   0 |  1 |   0 |   0 | 6.000000e+00 | 7.000000e+00 |  16.67%| unknown
 time | node  | left  |LP iter|LP it/n|mem/heur|mdpt |vars |cons |rows |cuts |sepa|confs|strbr|  dualbound   | primalbound  |  gap   | compl. 
  748s|    79 |    78 | 17729 | 165.8 |    48M |  28 |  12k|  51 |  51 |   0 |  1 |   0 |   0 | 6.000000e+00 | 7.000000e+00 |  16.67%| unknown
 time | node  | left  |LP iter|LP it/n|mem/heur|mdpt |vars |cons |rows |cuts |sepa|confs|strbr|  dualbound   | primalbound  |  gap   | compl. 
  750s|    80 |    79 | 17740 | 163.8 |    49M |  29 |  12k|  51 |  51 |   0 |  1 |   0 |   0 | 6.000000e+00 | 7.000000e+00 |  16.67%| unknown
 time | node  | left  |LP iter|LP it/n|mem/heur|mdpt |vars |cons |rows |cuts |sepa|confs|strbr|  dualbound   | primalbound  |  gap   | compl. 
  753s|    81 |    78 | 17957 | 164.5 |    50M |  30 |  13k|  51 |  51 |   0 |  0 |   0 |   0 | 6.000000e+00 | 7.000000e+00 |  16.67%| unknown
 time | node  | left  |LP iter|LP it/n|mem/heur|mdpt |vars |cons |rows |cuts |sepa|confs|strbr|  dualbound   | primalbound  |  gap   | compl. 
  755s|    82 |    79 | 17964 | 162.5 |    50M |  30 |  13k|  51 |  51 |   0 |  1 |   0 |   0 | 6.000000e+00 | 7.000000e+00 |  16.67%| unknown
 time | node  | left  |LP iter|LP it/n|mem/heur|mdpt |vars |cons |rows |cuts |sepa|confs|strbr|  dualbound   | primalbound  |  gap   | compl. 
r 757s|    83 |     0 | 17981 | 160.8 |simplero|  31 |  13k|  51 |  51 |   0 |  0 |   0 |   0 | 6.000000e+00 | 6.000000e+00 |   0.00%| 100.00%

SCIP Status        : problem is solved [optimal solution found]
Solving Time (sec) : 756.94
Solving Nodes      : 83
Primal Bound       : +6.00000000000000e+00 (4 solutions)
Dual Bound         : +6.00000000000000e+00
Gap                : 0.00 %
Running with parallel: True bidir: True symbreak: True
Number of Nodes:  51
48.92989875688837% holds
starting cheapest insertion heuristic
Heuristic without TSP improvement:  7
Heuristic without TSP improvement time:  0.1
Heuristic Sol:  7
Heuristic total time:  0.1
[[22, 46, 36, 37, 15, 27, 18], [40, 12, 30, 11, 17, 28, 19, 24], [41, 3, 29, 2, 38, 32, 10, 9, 4], [42, 20, 21, 5, 35, 13, 14, 43, 23], [50, 1, 33, 44, 8], [49, 26, 6, 31, 16], [48, 47, 25, 0, 7, 45, 39, 34]]
Instance path:  /home/htc/mghannam/SCRATCH/lccp-rust/data/t62_eil51.npcc
Timelimit:  7200
Heuristic without TSP improvement:  7
Heuristic without TSP improvement time:  0.1
Heuristic Sol:  7
Heuristic total time:  0.5
at 1 zero_duals: 44
at1, LP obj: 7.0 n_added_paths: 989
at 1 zero_duals: 28
at1, LP obj: 7.0 n_added_paths: 560
at 1 zero_duals: 20
at1, LP obj: 7.0 n_added_paths: 836
at 1 zero_duals: 19
at1, LP obj: 7.0 n_added_paths: 766
at1, LP obj: 6.34416743317843 n_added_paths: 825
at 1 zero_duals: 5
at1, LP obj: 5.772672694538794 n_added_paths: 433
at 1 zero_duals: 2
at1, LP obj: 5.578650882159503 n_added_paths: 267
Switching to elementary pricing
at1, LP obj: 5.454925009485569 n_added_paths: 256
updated lowerbound from 1.0 to 4
Switching to elementary pricing
at1, LP obj: 5.289798436857261 n_added_paths: 96
updated lowerbound from 4.0 to 5
Switching to elementary pricing
at1, LP obj: 5.274446651063434 n_added_paths: 6
updated lowerbound from 5.0 to 6
Gap too small = 0, stopping pricing with lb = 6
Gap too small = 0, stopping pricing with lb = 6
Gap too small = 0, stopping pricing with lb = 6
Gap too small = 0, stopping pricing with lb = 6
Gap too small = 0, stopping pricing with lb = 6
Gap too small = 0, stopping pricing with lb = 6
Gap too small = 0, stopping pricing with lb = 6
Gap too small = 0, stopping pricing with lb = 6
Gap too small = 0, stopping pricing with lb = 6
Gap too small = 0, stopping pricing with lb = 6
Gap too small = 0, stopping pricing with lb = 6
Gap too small = 0, stopping pricing with lb = 6
Gap too small = 0, stopping pricing with lb = 6
Gap too small = 0, stopping pricing with lb = 6
Gap too small = 0, stopping pricing with lb = 6
Gap too small = 0, stopping pricing with lb = 6
Gap too small = 0, stopping pricing with lb = 6
Gap too small = 0, stopping pricing with lb = 6
Gap too small = 0, stopping pricing with lb = 6
Gap too small = 0, stopping pricing with lb = 6
Gap too small = 0, stopping pricing with lb = 6
Gap too small = 0, stopping pricing with lb = 6
Gap too small = 0, stopping pricing with lb = 6
Gap too small = 0, stopping pricing with lb = 6
Gap too small = 0, stopping pricing with lb = 6
Gap too small = 0, stopping pricing with lb = 6
Gap too small = 0, stopping pricing with lb = 6
Gap too small = 0, stopping pricing with lb = 6
Gap too small = 0, stopping pricing with lb = 6
Gap too small = 0, stopping pricing with lb = 6
Gap too small = 0, stopping pricing with lb = 6
Gap too small = 0, stopping pricing with lb = 6
Gap too small = 0, stopping pricing with lb = 6
Gap too small = 0, stopping pricing with lb = 6
Gap too small = 0, stopping pricing with lb = 6
Gap too small = 0, stopping pricing with lb = 6
Gap too small = 0, stopping pricing with lb = 6
Gap too small = 0, stopping pricing with lb = 6
at 76 zero_duals: 20
at76, LP obj: 6.25918918918919 n_added_paths: 793
Gap too small = 0, stopping pricing with lb = 6
Gap too small = 0, stopping pricing with lb = 6
Gap too small = 0, stopping pricing with lb = 6
Gap too small = 0, stopping pricing with lb = 6
Gap too small = 0, stopping pricing with lb = 6
Gap too small = 0, stopping pricing with lb = 6
Gap too small = 0, stopping pricing with lb = 6
Gap too small = 0, stopping pricing with lb = 6
Gap too small = 0, stopping pricing with lb = 6
Gap too small = 0, stopping pricing with lb = 6
Gap too small = 0, stopping pricing with lb = 6
at 98 zero_duals: 11
at98, LP obj: 6.5041308089500856 n_added_paths: 678
Gap too small = 0, stopping pricing with lb = 6
Gap too small = 0, stopping pricing with lb = 6
Gap too small = 0, stopping pricing with lb = 6
at 104 zero_duals: 10
at104, LP obj: 6.18030961131529 n_added_paths: 578
Gap too small = 0, stopping pricing with lb = 6
Gap too small = 0, stopping pricing with lb = 6
at 101 zero_duals: 47
Switching to elementary pricing
at101, LP obj: 1e+20 n_added_paths: 245
updated lowerbound from 6.0 to 100000000000000000000
at 101 zero_duals: 50
Switching to elementary pricing
at101, LP obj: 1e+20 n_added_paths: 0
updated lowerbound from 6.0 to 100000000000000000000
Gap too small = 0, stopping pricing with lb = 6
at 110 zero_duals: 11
at110, LP obj: 6.144992947813823 n_added_paths: 571
Gap too small = 0, stopping pricing with lb = 6
Gap too small = 0, stopping pricing with lb = 6
at 114 zero_duals: 10
at114, LP obj: 6.014829659318638 n_added_paths: 661
Gap too small = 0, stopping pricing with lb = 6
Gap too small = 0, stopping pricing with lb = 6
at 118 zero_duals: 15
at118, LP obj: 6.079039730450653 n_added_paths: 540
Gap too small = 0, stopping pricing with lb = 6
at 115 zero_duals: 12
at115, LP obj: 6.01611090295991 n_added_paths: 423
Gap too small = 0, stopping pricing with lb = 6
Gap too small = 0, stopping pricing with lb = 6
at 124 zero_duals: 18
at124, LP obj: 6.0616239090187785 n_added_paths: 460
Gap too small = 0, stopping pricing with lb = 6
Gap too small = 0, stopping pricing with lb = 6
Gap too small = 0, stopping pricing with lb = 6
Gap too small = 0, stopping pricing with lb = 6
Gap too small = 0, stopping pricing with lb = 6
at 134 zero_duals: 9
at134, LP obj: 6.126928728875828 n_added_paths: 611
Gap too small = 0, stopping pricing with lb = 6
Gap too small = 0, stopping pricing with lb = 6
Gap too small = 0, stopping pricing with lb = 6
Gap too small = 0, stopping pricing with lb = 6
Gap too small = 0, stopping pricing with lb = 6
at 144 zero_duals: 26
at144, LP obj: 6.5 n_added_paths: 694
at 144 zero_duals: 10
Switching to elementary pricing
at144, LP obj: 6.053571428571429 n_added_paths: 386
Gap too small = 0, stopping pricing with lb = 6
at 146 zero_duals: 11
at146, LP obj: 6.043437204910293 n_added_paths: 354
Gap too small = 0, stopping pricing with lb = 6
at 148 zero_duals: 10
Switching to elementary pricing
at148, LP obj: 6.014542671259089 n_added_paths: 215
Gap too small = 0, stopping pricing with lb = 6
Gap too small = 0, stopping pricing with lb = 6
Gap too small = 0, stopping pricing with lb = 6
at 154 zero_duals: 15
at154, LP obj: 6.014925373134329 n_added_paths: 407
Gap too small = 0, stopping pricing with lb = 6
Gap too small = 0, stopping pricing with lb = 6
at 158 zero_duals: 10
Switching to elementary pricing
at158, LP obj: 6.160583941605842 n_added_paths: 343
at 158 zero_duals: 13
at158, LP obj: 6.093750000000007 n_added_paths: 59
at 158 zero_duals: 7
Switching to elementary pricing
at158, LP obj: 6.083464566929134 n_added_paths: 41
at 158 zero_duals: 5
Switching to elementary pricing
at158, LP obj: 6.056060606060606 n_added_paths: 24
at 158 zero_duals: 7
Switching to elementary pricing
at158, LP obj: 6.0521945432977455 n_added_paths: 2
updated lowerbound from 6.0 to 7
Gap too small = 0, stopping pricing with lb = 6
Gap too small = 0, stopping pricing with lb = 6
Best solution found:
[44, 8, 33, 1, 6, 43, 23, 42, 14, 44] 1.0 0.999999999999992
checking cycle [44, 8, 33, 1, 6, 43, 23, 42, 14, 44]
[44, 8, 33, 1, 6, 43, 23, 42, 14, 44] 93 90
[39, 32, 38, 10, 20, 21, 13, 35, 5, 7, 39] 1.0 1.0
checking cycle [39, 32, 38, 10, 20, 21, 13, 35, 5, 7, 39]
[39, 32, 38, 10, 20, 21, 13, 35, 5, 7, 39] 99 98
[48, 34, 45, 0, 25, 47, 40, 24, 19, 12, 48] 1.0 1.0
checking cycle [48, 34, 45, 0, 25, 47, 40, 24, 19, 12, 48]
[48, 34, 45, 0, 25, 47, 40, 24, 19, 12, 48] 87 87
[46, 36, 41, 37, 29, 28, 30, 11, 27, 46] 1.0 1.0000000000000004
checking cycle [46, 36, 41, 37, 29, 28, 30, 11, 27, 46]
[46, 36, 41, 37, 29, 28, 30, 11, 27, 46] 89 88
[22, 17, 3, 2, 4, 9, 15, 18, 22] 1.0 0.9999999999999979
checking cycle [22, 17, 3, 2, 4, 9, 15, 18, 22]
[22, 17, 3, 2, 4, 9, 15, 18, 22] 146 131
[50, 26, 31, 49, 16, 50] 1.0 0.9999999999999883
checking cycle [50, 26, 31, 49, 16, 50]
[50, 26, 31, 49, 16, 50] 74 66
